Route #1: 127 43 60 196 6 125 12 193 92 107 141 46 94 23 191 116 9 4
Route #2: 194 21 19 87 163 55 146 79 137 126 174 59 133 52 198 201
Route #3: 190 34 175 50 45 183 131 65
Route #4: 18 119 40 178 58 187 77 71 149 20 63 136 53 78 105 110 128 132 16
Route #5: 69 186 180 22 138 121 167 3 151 86 10 118 80 204 143 144 159
Route #6: 165 17 99 27 31 67 192 170 129 7 166 37 172 96 74 108 101 130 156 176 200
Route #7: 90 8 51 120 61 182 157 24 189 109 32 158 171 85 197 30 162 124 93 208
Route #8: 75 97 111 112 39 81 25 35 15 106 147 142 181 122 188 207 152 84
Route #9: 70 49 26 33 148 206 155 95 5 57 82 14 44 100 72 161 88
Route #10: 102 114 135 64 123 89 62 117 139 66 195 1 83 2 113
Route #11: 38 56 173 203 103 42 205 98 29 54 47 199 169 177 68
Route #12: 91 73 134 153 11 28 115 36 202 185 179 154 150 41 184 140 13 145 104 164 76 160 168 48
Cost 24834.000000